p wcnf 121 242 243 
1 120 -66 0 
1 -108 -114 0 
1 -99 -13 0 
1 46 94 0 
1 -96 -64 0 
1 -27 57 0 
1 9 -17 0 
1 -10 84 0 
1 -22 105 0 
1 -82 59 0 
1 -35 61 0 
1 -85 -99 0 
1 -91 42 0 
1 101 82 0 
1 -96 -78 0 
1 31 -30 0 
1 89 -38 0 
1 84 -9 0 
1 -81 58 0 
1 17 -84 0 
1 -20 3 0 
1 93 65 0 
1 -48 -33 0 
1 33 72 0 
1 11 -88 0 
1 -19 27 0 
1 -87 74 0 
1 37 107 0 
1 38 75 0 
1 111 36 0 
1 -42 69 0 
1 -121 -115 0 
1 -94 -10 0 
1 110 108 0 
1 17 80 0 
1 -110 -66 0 
1 -36 33 0 
1 -16 -8 0 
1 38 -67 0 
1 -74 -97 0 
1 -63 -56 0 
1 -77 35 0 
1 -76 -82 0 
1 38 -78 0 
1 14 -18 0 
1 -41 -38 0 
1 -72 -87 0 
1 -75 -38 0 
1 53 40 0 
1 86 43 0 
1 -70 99 0 
1 4 59 0 
1 33 -42 0 
1 98 92 0 
1 13 -87 0 
1 77 -90 0 
1 -103 27 0 
1 66 -12 0 
1 -18 -73 0 
1 121 75 0 
1 -5 -35 0 
1 -96 -110 0 
1 -80 73 0 
1 -41 -50 0 
1 65 101 0 
1 -28 -25 0 
1 -88 35 0 
1 74 -112 0 
1 104 -17 0 
1 26 -38 0 
1 -44 38 0 
1 59 106 0 
1 -21 105 0 
1 86 72 0 
1 33 -117 0 
1 -118 -56 0 
1 -106 -57 0 
1 60 -98 0 
1 -108 3 0 
1 -12 65 0 
1 -41 -63 0 
1 62 67 0 
1 39 105 0 
1 -66 -113 0 
1 72 58 0 
1 120 73 0 
1 -70 -66 0 
1 -19 118 0 
1 -59 -29 0 
1 8 4 0 
1 77 -32 0 
1 -103 -47 0 
1 -28 11 0 
1 19 -65 0 
1 91 -109 0 
1 35 -83 0 
1 -70 116 0 
1 -34 65 0 
1 116 119 0 
1 -70 -109 0 
1 113 -66 0 
1 30 99 0 
1 -79 58 0 
1 -110 -21 0 
1 111 -8 0 
1 -56 -44 0 
1 -61 92 0 
1 -6 104 0 
1 69 95 0 
1 -23 28 0 
1 76 8 0 
1 -103 -69 0 
1 78 -96 0 
1 -101 -98 0 
1 43 70 0 
1 -1 59 0 
1 23 34 0 
1 -6 -96 0 
1 14 -6 0 
1 -106 109 0 
1 63 -44 0 
1 -68 -104 0 
1 -22 10 0 
1 104 83 0 
1 53 -4 0 
1 16 72 0 
1 77 18 0 
1 88 18 0 
1 18 59 0 
1 78 102 0 
1 -64 47 0 
1 20 -66 0 
1 77 99 0 
1 93 61 0 
1 15 24 0 
1 115 46 0 
1 23 -31 0 
1 80 -112 0 
1 64 -121 0 
1 -2 53 0 
1 3 25 0 
1 68 -14 0 
1 -97 111 0 
1 38 -93 0 
1 -19 2 0 
1 -5 -89 0 
1 -87 17 0 
1 -118 35 0 
1 18 -13 0 
1 26 28 0 
1 -20 -87 0 
1 83 -81 0 
1 20 90 0 
1 -64 -25 0 
1 -44 8 0 
1 -24 109 0 
1 -121 21 0 
1 29 -70 0 
1 60 108 0 
1 -14 74 0 
1 -110 -91 0 
1 -72 6 0 
1 117 111 0 
1 -113 -23 0 
1 -89 119 0 
1 31 82 0 
1 101 45 0 
1 -57 -52 0 
1 21 -100 0 
1 20 13 0 
1 71 40 0 
1 -64 -90 0 
1 82 -59 0 
1 -30 -62 0 
1 121 110 0 
1 -63 -69 0 
1 90 -86 0 
1 105 101 0 
1 -30 -3 0 
1 -76 34 0 
1 -21 -87 0 
1 26 13 0 
1 -92 34 0 
1 78 -2 0 
1 -54 -15 0 
1 47 89 0 
1 -100 -66 0 
1 67 87 0 
1 -20 -43 0 
1 -24 -7 0 
1 93 118 0 
1 52 -121 0 
1 67 100 0 
1 119 -76 0 
1 -8 91 0 
1 68 108 0 
1 27 -112 0 
1 37 -93 0 
1 83 120 0 
1 8 -44 0 
1 79 120 0 
1 -92 -41 0 
1 -97 42 0 
1 -92 29 0 
1 -102 -60 0 
1 -25 84 0 
1 48 -103 0 
1 11 -7 0 
1 -108 -89 0 
1 4 33 0 
1 -93 -105 0 
1 -36 90 0 
1 83 91 0 
1 120 -101 0 
1 -9 13 0 
1 -47 -112 0 
1 23 -89 0 
1 -25 -55 0 
1 78 -41 0 
1 -105 109 0 
1 103 -66 0 
1 -19 -24 0 
1 34 104 0 
1 19 6 0 
1 108 15 0 
1 -44 -18 0 
1 -109 -57 0 
1 -53 -102 0 
1 -30 20 0 
1 83 -118 0 
1 37 -28 0 
1 -105 -92 0 
1 -34 51 0 
1 111 41 0 
1 -43 -61 0 
1 -59 -90 0 
1 7 -77 0 
1 -114 110 0 
1 -61 -46 0 
1 -120 -37 0 
1 75 -56 0 
1 51 -8 0 
